[2026-03-24T16:32:45.725Z] Pipeline "set_vm-3-t2_vm-3-t2_s024_g002" → 2026_03_24_16_32_45_set_vm-3-t2_vm-3-t2_s024_g002_max.sol
Set parameter Username
Set parameter LicenseID to value 2796068
Set parameter LogFile to value "gurobi.log"
Using license file /opt/gurobi/gurobi.lic
Academic license - for non-commercial use only - expires 2027-03-23

Gurobi Optimizer version 13.0.1 build v13.0.1rc0 (linux64 - "Ubuntu 24.04.4 LTS")
Copyright (c) 2026, Gurobi Optimization, LLC

Warning: Duplicate section found (read 'binary') - Is a variable name equal to an LP file format keyword?
Warning: Duplicate section found (read 'binary') - Is a variable name equal to an LP file format keyword?
Warning: Duplicate section found (read 'binary') - Is a variable name equal to an LP file format keyword?
Warning: Duplicate section found (read 'binary') - Is a variable name equal to an LP file format keyword?
Warning: Duplicate section found (read 'binary') - Is a variable name equal to an LP file format keyword?
Warning: Duplicate section found (read 'binary') - Is a variable name equal to an LP file format keyword?
Warning: Duplicate section found (read 'binary') - Is a variable name equal to an LP file format keyword?
Warning: Duplicate section found (read 'binary') - Is a variable name equal to an LP file format keyword?
Warning: Duplicate section found (read 'binary') - Is a variable name equal to an LP file format keyword?
Warning: Duplicate section found (read 'binary') - Is a variable name equal to an LP file format keyword?
Warning: Further warnings of this type will be omitted.
Read LP format model from file /root/bgw/data/uploads/2026_03_24_16_32_45_set_vm-3-t2_vm-3-t2_s024_g002_max.lp
Reading time = 0.01 seconds
: 12359 rows, 677 columns, 37830 nonzeros

Using Gurobi shared library /opt/gurobi1301/linux64/lib/libgurobi.so.13.0.1

CPU model: AMD EPYC-Genoa Processor, instruction set [SSE2|AVX|AVX2|AVX512]
Thread count: 16 physical cores, 16 logical processors, using up to 16 threads

Optimize a model with 12359 rows, 677 columns and 37830 nonzeros (Max)
Model fingerprint: 0xf3e16114
Model has 17 linear objective coefficients
Variable types: 51 continuous, 626 integer (626 binary)
Coefficient statistics:
  Matrix range     [1e+00, 4e+01]
  Objective range  [1e+00, 1e+00]
  Bounds range     [1e+00, 1e+00]
  RHS range        [1e+00, 4e+01]

Found heuristic solution: objective 17.0000000
Presolve removed 358 rows and 96 columns
Presolve time: 0.04s
Presolved: 12001 rows, 581 columns, 36220 nonzeros
Variable types: 0 continuous, 581 integer (574 binary)

Root relaxation: objective 9.000000e+01, 481 iterations, 0.03 seconds (0.05 work units)

    Nodes    |    Current Node    |     Objective Bounds      |     Work
 Expl Unexpl |  Obj  Depth IntInf | Incumbent    BestBd   Gap | It/Node Time

     0     0   90.00000    0   30   17.00000   90.00000   429%     -    0s
H    0     0                      45.0000000   90.00000   100%     -    0s
H    0     0                      46.0000000   90.00000  95.7%     -    0s
H    0     0                      47.0000000   90.00000  91.5%     -    0s
     0     0   90.00000    0   29   47.00000   90.00000  91.5%     -    0s
     0     0   90.00000    0   29   47.00000   90.00000  91.5%     -    0s
     0     0   90.00000    0   44   47.00000   90.00000  91.5%     -    0s
     0     0   90.00000    0   16   47.00000   90.00000  91.5%     -    0s
     0     0   90.00000    0   17   47.00000   90.00000  91.5%     -    0s
     0     0   90.00000    0   25   47.00000   90.00000  91.5%     -    0s
     0     0   90.00000    0   24   47.00000   90.00000  91.5%     -    0s
     0     0   90.00000    0   23   47.00000   90.00000  91.5%     -    0s
     0     0   90.00000    0   26   47.00000   90.00000  91.5%     -    0s
     0     0   90.00000    0   25   47.00000   90.00000  91.5%     -    0s
     0     0   90.00000    0   25   47.00000   90.00000  91.5%     -    0s
     0     0   90.00000    0   18   47.00000   90.00000  91.5%     -    0s
     0     0   90.00000    0   18   47.00000   90.00000  91.5%     -    0s
     0     0   90.00000    0   26   47.00000   90.00000  91.5%     -    0s
     0     0   90.00000    0   26   47.00000   90.00000  91.5%     -    0s
     0     0   90.00000    0   19   47.00000   90.00000  91.5%     -    0s
     0     0   90.00000    0   19   47.00000   90.00000  91.5%     -    0s
     0     0   90.00000    0   19   47.00000   90.00000  91.5%     -    0s
     0     0   90.00000    0   19   47.00000   90.00000  91.5%     -    0s
     0     2   90.00000    0   18   47.00000   90.00000  91.5%     -    0s
  2138   329   60.31250   14    3   47.00000   73.63542  56.7%   186    5s
  4851    13   54.78125   11   22   47.00000   59.78788  27.2%   208   10s

Cutting planes:
  Cover: 40
  MIR: 8
  Inf proof: 64
  Zero half: 2

Explored 4966 nodes (1042405 simplex iterations) in 10.28 seconds (21.58 work units)
Thread count was 16 (of 16 available processors)

Solution count 4: 47 46 45 17 

Optimal solution found (tolerance 1.00e-04)
Best objective 4.700000000000e+01, best bound 4.700000000000e+01, gap 0.0000%

Wrote result file '/root/bgw/data/results/2026_03_24_16_32_45_set_vm-3-t2_vm-3-t2_s024_g002_max.sol'

